NAME : XML50_2173_18
COMMENT : Generated as the XML100 dataset from the CVRPLIB
TYPE : CVRP
DIMENSION : 51
EDGE_WEIGHT_TYPE : EUC_2D
CAPACITY : 135
NODE_COORD_SECTION
1    500  500 
2    205  408 
3    50   168 
4    556  858 
5    65   580 
6    319  344 
7    94   31  
8    945  623 
9    906  497 
10   334  509 
11   26   420 
12   427  838 
13   771  940 
14   333  736 
15   926  280 
16   517  740 
17   88   209 
18   351  665 
19   831  500 
20   103  508 
21   90   880 
22   53   681 
23   827  789 
24   696  815 
25   258  693 
26   573  18  
27   385  117 
28   965  91  
29   56   872 
30   674  116 
31   194  543 
32   127  694 
33   151  208 
34   164  328 
35   882  974 
36   194  915 
37   104  387 
38   290  504 
39   898  647 
40   279  120 
41   323  513 
42   903  850 
43   914  411 
44   225  219 
45   450  807 
46   601  76  
47   282  704 
48   456  508 
49   823  564 
50   99   210 
51   937  894 
DEMAND_SECTION
1    0   
2    1   
3    3   
4    5   
5    3   
6    3   
7    3   
8    84  
9    4   
10   8   
11   4   
12   4   
13   78  
14   1   
15   8   
16   8   
17   4   
18   7   
19   6   
20   1   
21   10  
22   8   
23   9   
24   7   
25   73  
26   6   
27   1   
28   68  
29   7   
30   5   
31   5   
32   9   
33   65  
34   6   
35   5   
36   7   
37   9   
38   5   
39   88  
40   10  
41   1   
42   10  
43   3   
44   8   
45   58  
46   7   
47   6   
48   3   
49   4   
50   10  
51   1   
DEPOT_SECTION
1
-1
EOF
